TCS_Benchmarks/redos_fix/regexlib2_output_distinct_3656_3655_24_0.txt
\d{4,6}
(\d{4,6})(\d{1,4}(([\/\-])?))(\d{1,7})
\d{1,7}